(set-logic ALL)
(declare-fun seed0_T_1 () Bool)
(declare-fun seed0_T_2 () Bool)
(declare-fun seed0_T_3 () Bool)
(declare-fun seed0_T_4 () Bool)
(declare-fun seed0_var_0xINPUT_47251 () String)
(assert (and (or (= seed0_T_1 (= "-" seed0_var_0xINPUT_47251)) (=> (str.prefixof (str.++ seed0_var_0xINPUT_47251 "dFX1vj7Vm6MJtwIH") (str.++ seed0_var_0xINPUT_47251 "uk8n")) (str.< (str.++ seed0_var_0xINPUT_47251 "Pzs4I") (str.++ seed0_var_0xINPUT_47251 "hM")))) (or (= seed0_T_2 (not seed0_T_1)) (=> (str.suffixof (str.++ seed0_var_0xINPUT_47251 "Rf") (str.++ seed0_var_0xINPUT_47251 "I9Gi0xrTQwEY")) (str.contains (str.++ seed0_var_0xINPUT_47251 "Cdqnx8WJZ") (str.++ seed0_var_0xINPUT_47251 "fJWXg")))) (or seed0_T_2 (str.prefixof (str.++ seed0_var_0xINPUT_47251 "1eS6oR9dj0fT") (str.++ seed0_var_0xINPUT_47251 "j56GQbN7w4"))) (or (= seed0_T_3 (= "" seed0_var_0xINPUT_47251)) (str.suffixof (str.++ seed0_var_0xINPUT_47251 "r3IRqilZbh") (str.++ seed0_var_0xINPUT_47251 "egtF0ncBZ"))) (or (= seed0_T_4 (not seed0_T_3)) (xor (str.<= (str.++ seed0_var_0xINPUT_47251 "L4wqk5PDcIhS") (str.++ seed0_var_0xINPUT_47251 "CnXd0rFk6Tw9")) (str.< (str.++ seed0_var_0xINPUT_47251 "4ZMUFm0xPQkrbn7cu") (str.++ seed0_var_0xINPUT_47251 "")))) (or seed0_T_4 (str.prefixof (str.++ seed0_var_0xINPUT_47251 "6r") (str.++ seed0_var_0xINPUT_47251 "3Zxh")))))
(check-sat)
(exit)